param set_len = 24;
param target_sum = 188688;
param values := [1] 24388 [2] 12553 [3] 23186 [4] 2827 [5] 14887 [6] 28335 [7] 24240 [8] 24439 [9] 17175 [10] 4714 [11] 21587 [12] 29607 [13] 23648 [14] 3685 [15] 18278 [16] 15419 [17] 2325 [18] 30908 [19] 1950 [20] 28590 [21] 26553 [22] 15130 [23] 22029 [24] 5891 ;
